p cnf 15 13
-5 -14 0
11 -1 -3 0
-2 1 0
-2 -11 13 0
7 -1 0
15 -8 0
8 -5 7 -14 9 10 -12 -6 13 3 11 2 -1 15 -4 0
13 2 1 3 -8 9 -15 -4 11 -7 14 5 -10 12 -6 0
12 -3 0
7 -6 -12 9 0
3 6 -2 11 12 8 -14 -5 9 0
14 9 15 13 -8 -12 -1 -2 3 10 -5 -11 -6 -4 0
-12 9 15 1 -5 11 -8 3 0
